array [1..75] of int: X_INTRODUCED_356 = [1,-7,-30,-22,-80,-94,-11,-81,-70,-64,-59,-18,-36,-3,-8,-15,-42,-9,-42,-47,-52,-32,-26,-48,-55,-6,-29,-84,-2,-4,-18,-56,-7,-29,-93,-44,-71,-3,-86,-66,-31,-65,-79,-20,-65,-52,-13,-48,-14,-5,-72,-14,-39,-46,-27,-11,-91,-15,-25,-94,-53,-48,-27,-99,-6,-17,-69,-43,-57,-7,-21,-78,-10,-37,-26];
array [1..80] of int: X_INTRODUCED_359 = [-360,-83,-59,-130,-431,-67,-230,-52,-93,-125,-670,-892,-600,-38,-48,-147,-78,-256,-63,-17,-120,-164,-432,-35,-92,-110,-22,-42,-50,-323,-514,-28,-87,-73,-78,-15,-26,-78,-210,-36,-85,-189,-274,-43,-33,-10,-19,-389,-276,-312,-94,-68,-73,-192,-41,-163,-16,-40,-195,-138,-73,-152,-400,-26,-14,-170,-205,-57,-369,-435,-123,-25,-94,-88,-90,-146,-55,-29,-82,-74];
array [1..75] of int: X_INTRODUCED_444 = [1,-8,-66,-98,-50,-30,-88,-15,-37,-26,-72,-61,-57,-17,-27,-83,-3,-9,-66,-97,-42,-2,-44,-71,-11,-25,-74,-90,-20,-38,-33,-14,-9,-23,-12,-58,-6,-14,-78,-12,-99,-84,-31,-16,-7,-33,-20,-5,-18,-96,-63,-31,-70,-4,-66,-9,-15,-25,-2,-48,-1,-40,-31,-82,-79,-56,-34,-3,-19,-52,-36,-95,-6,-35,-34];
array [1..79] of int: X_INTRODUCED_531 = [1,-3,-74,-88,-50,-55,-19,-6,-30,-62,-17,-81,-25,-46,-67,-28,-36,-8,-1,-52,-19,-37,-27,-62,-39,-84,-16,-14,-21,-5,-60,-82,-72,-89,-16,-5,-29,-7,-80,-97,-41,-46,-15,-92,-51,-76,-57,-90,-10,-37,-25,-93,-5,-39,-97,-6,-96,-2,-81,-69,-4,-32,-78,-65,-83,-62,-89,-45,-53,-52,-76,-72,-23,-89,-48,-41,-1,-27,-19];
array [1..78] of int: X_INTRODUCED_617 = [1,-21,-40,-6,-82,-91,-43,-30,-62,-91,-10,-41,-12,-4,-80,-77,-98,-50,-78,-35,-7,-1,-96,-67,-85,-4,-23,-38,-2,-57,-4,-53,-33,-2,-25,-14,-97,-87,-42,-15,-65,-19,-83,-67,-70,-80,-39,-9,-5,-41,-31,-36,-15,-30,-87,-28,-13,-40,-51,-79,-75,-43,-91,-60,-24,-18,-85,-83,-3,-85,-2,-5,-51,-63,-52,-85,-17,-62];
array [1..80] of int: X_INTRODUCED_697 = [1,-94,-86,-80,-92,-31,-17,-65,-51,-46,-66,-44,-3,-26,-39,-20,-11,-6,-55,-70,-11,-75,-82,-35,-47,-99,-5,-14,-23,-38,-94,-66,-64,-27,-77,-50,-28,-25,-61,-10,-30,-15,-12,-24,-90,-25,-39,-47,-98,-83,-56,-36,-6,-66,-89,-45,-38,-1,-18,-88,-19,-39,-20,-1,-7,-34,-68,-32,-31,-58,-41,-99,-92,-67,-33,-26,-25,-68,-37,-6];
var 0..1: X_INTRODUCED_0;
var 0..1: X_INTRODUCED_1;
var 0..1: X_INTRODUCED_2;
var 0..1: X_INTRODUCED_3;
var 0..1: X_INTRODUCED_4;
var 0..1: X_INTRODUCED_5;
var 0..1: X_INTRODUCED_6;
var 0..1: X_INTRODUCED_7;
var 0..1: X_INTRODUCED_8;
var 0..1: X_INTRODUCED_9;
var 0..1: X_INTRODUCED_10;
var 0..1: X_INTRODUCED_11;
var 0..1: X_INTRODUCED_12;
var 0..1: X_INTRODUCED_13;
var 0..1: X_INTRODUCED_14;
var 0..1: X_INTRODUCED_15;
var 0..1: X_INTRODUCED_16;
var 0..1: X_INTRODUCED_17;
var 0..1: X_INTRODUCED_18;
var 0..1: X_INTRODUCED_19;
var 0..1: X_INTRODUCED_20;
var 0..1: X_INTRODUCED_21;
var 0..1: X_INTRODUCED_22;
var 0..1: X_INTRODUCED_23;
var 0..1: X_INTRODUCED_24;
var 0..1: X_INTRODUCED_25;
var 0..1: X_INTRODUCED_26;
var 0..1: X_INTRODUCED_27;
var 0..1: X_INTRODUCED_28;
var 0..1: X_INTRODUCED_29;
var 0..1: X_INTRODUCED_30;
var 0..1: X_INTRODUCED_31;
var 0..1: X_INTRODUCED_32;
var 0..1: X_INTRODUCED_33;
var 0..1: X_INTRODUCED_34;
var 0..1: X_INTRODUCED_35;
var 0..1: X_INTRODUCED_36;
var 0..1: X_INTRODUCED_37;
var 0..1: X_INTRODUCED_38;
var 0..1: X_INTRODUCED_39;
var 0..1: X_INTRODUCED_40;
var 0..1: X_INTRODUCED_41;
var 0..1: X_INTRODUCED_42;
var 0..1: X_INTRODUCED_43;
var 0..1: X_INTRODUCED_44;
var 0..1: X_INTRODUCED_45;
var 0..1: X_INTRODUCED_46;
var 0..1: X_INTRODUCED_47;
var 0..1: X_INTRODUCED_48;
var 0..1: X_INTRODUCED_49;
var 0..1: X_INTRODUCED_50;
var 0..1: X_INTRODUCED_51;
var 0..1: X_INTRODUCED_52;
var 0..1: X_INTRODUCED_53;
var 0..1: X_INTRODUCED_54;
var 0..1: X_INTRODUCED_55;
var 0..1: X_INTRODUCED_56;
var 0..1: X_INTRODUCED_57;
var 0..1: X_INTRODUCED_58;
var 0..1: X_INTRODUCED_59;
var 0..1: X_INTRODUCED_60;
var 0..1: X_INTRODUCED_61;
var 0..1: X_INTRODUCED_62;
var 0..1: X_INTRODUCED_63;
var 0..1: X_INTRODUCED_64;
var 0..1: X_INTRODUCED_65;
var 0..1: X_INTRODUCED_66;
var 0..1: X_INTRODUCED_67;
var 0..1: X_INTRODUCED_68;
var 0..1: X_INTRODUCED_69;
var 0..1: X_INTRODUCED_70;
var 0..1: X_INTRODUCED_71;
var 0..1: X_INTRODUCED_72;
var 0..1: X_INTRODUCED_73;
var 0..1: X_INTRODUCED_74;
var 0..1: X_INTRODUCED_75;
var 0..1: X_INTRODUCED_76;
var 0..1: X_INTRODUCED_77;
var 0..1: X_INTRODUCED_78;
var 0..1: X_INTRODUCED_79;
var 0..1347: X_INTRODUCED_80:: is_defined_var;
var 0..2180: X_INTRODUCED_81:: is_defined_var;
var 0..2683: X_INTRODUCED_82:: is_defined_var;
var 0..838: X_INTRODUCED_83:: is_defined_var;
var 0..1788: X_INTRODUCED_84:: is_defined_var;
var 0..12331: objective:: is_defined_var;
array [1..80] of var int: x:: output_array([1..80]) = [X_INTRODUCED_0,X_INTRODUCED_1,X_INTRODUCED_2,X_INTRODUCED_3,X_INTRODUCED_4,X_INTRODUCED_5,X_INTRODUCED_6,X_INTRODUCED_7,X_INTRODUCED_8,X_INTRODUCED_9,X_INTRODUCED_10,X_INTRODUCED_11,X_INTRODUCED_12,X_INTRODUCED_13,X_INTRODUCED_14,X_INTRODUCED_15,X_INTRODUCED_16,X_INTRODUCED_17,X_INTRODUCED_18,X_INTRODUCED_19,X_INTRODUCED_20,X_INTRODUCED_21,X_INTRODUCED_22,X_INTRODUCED_23,X_INTRODUCED_24,X_INTRODUCED_25,X_INTRODUCED_26,X_INTRODUCED_27,X_INTRODUCED_28,X_INTRODUCED_29,X_INTRODUCED_30,X_INTRODUCED_31,X_INTRODUCED_32,X_INTRODUCED_33,X_INTRODUCED_34,X_INTRODUCED_35,X_INTRODUCED_36,X_INTRODUCED_37,X_INTRODUCED_38,X_INTRODUCED_39,X_INTRODUCED_40,X_INTRODUCED_41,X_INTRODUCED_42,X_INTRODUCED_43,X_INTRODUCED_44,X_INTRODUCED_45,X_INTRODUCED_46,X_INTRODUCED_47,X_INTRODUCED_48,X_INTRODUCED_49,X_INTRODUCED_50,X_INTRODUCED_51,X_INTRODUCED_52,X_INTRODUCED_53,X_INTRODUCED_54,X_INTRODUCED_55,X_INTRODUCED_56,X_INTRODUCED_57,X_INTRODUCED_58,X_INTRODUCED_59,X_INTRODUCED_60,X_INTRODUCED_61,X_INTRODUCED_62,X_INTRODUCED_63,X_INTRODUCED_64,X_INTRODUCED_65,X_INTRODUCED_66,X_INTRODUCED_67,X_INTRODUCED_68,X_INTRODUCED_69,X_INTRODUCED_70,X_INTRODUCED_71,X_INTRODUCED_72,X_INTRODUCED_73,X_INTRODUCED_74,X_INTRODUCED_75,X_INTRODUCED_76,X_INTRODUCED_77,X_INTRODUCED_78,X_INTRODUCED_79];
array [1..75] of var int: X_INTRODUCED_355 ::var_is_introduced  = [X_INTRODUCED_80,X_INTRODUCED_0,X_INTRODUCED_2,X_INTRODUCED_3,X_INTRODUCED_4,X_INTRODUCED_5,X_INTRODUCED_6,X_INTRODUCED_7,X_INTRODUCED_8,X_INTRODUCED_9,X_INTRODUCED_10,X_INTRODUCED_11,X_INTRODUCED_13,X_INTRODUCED_14,X_INTRODUCED_15,X_INTRODUCED_16,X_INTRODUCED_17,X_INTRODUCED_18,X_INTRODUCED_20,X_INTRODUCED_21,X_INTRODUCED_22,X_INTRODUCED_23,X_INTRODUCED_24,X_INTRODUCED_25,X_INTRODUCED_26,X_INTRODUCED_27,X_INTRODUCED_28,X_INTRODUCED_29,X_INTRODUCED_30,X_INTRODUCED_31,X_INTRODUCED_32,X_INTRODUCED_33,X_INTRODUCED_34,X_INTRODUCED_35,X_INTRODUCED_36,X_INTRODUCED_37,X_INTRODUCED_38,X_INTRODUCED_39,X_INTRODUCED_40,X_INTRODUCED_41,X_INTRODUCED_42,X_INTRODUCED_43,X_INTRODUCED_45,X_INTRODUCED_46,X_INTRODUCED_47,X_INTRODUCED_48,X_INTRODUCED_49,X_INTRODUCED_50,X_INTRODUCED_51,X_INTRODUCED_52,X_INTRODUCED_53,X_INTRODUCED_54,X_INTRODUCED_55,X_INTRODUCED_56,X_INTRODUCED_57,X_INTRODUCED_58,X_INTRODUCED_59,X_INTRODUCED_60,X_INTRODUCED_61,X_INTRODUCED_63,X_INTRODUCED_64,X_INTRODUCED_65,X_INTRODUCED_66,X_INTRODUCED_67,X_INTRODUCED_68,X_INTRODUCED_69,X_INTRODUCED_70,X_INTRODUCED_71,X_INTRODUCED_73,X_INTRODUCED_74,X_INTRODUCED_75,X_INTRODUCED_76,X_INTRODUCED_77,X_INTRODUCED_78,X_INTRODUCED_79];
array [1..80] of var int: X_INTRODUCED_358 ::var_is_introduced  = [X_INTRODUCED_0,X_INTRODUCED_1,X_INTRODUCED_2,X_INTRODUCED_3,X_INTRODUCED_4,X_INTRODUCED_5,X_INTRODUCED_6,X_INTRODUCED_7,X_INTRODUCED_8,X_INTRODUCED_9,X_INTRODUCED_10,X_INTRODUCED_11,X_INTRODUCED_12,X_INTRODUCED_13,X_INTRODUCED_14,X_INTRODUCED_15,X_INTRODUCED_16,X_INTRODUCED_17,X_INTRODUCED_18,X_INTRODUCED_19,X_INTRODUCED_20,X_INTRODUCED_21,X_INTRODUCED_22,X_INTRODUCED_23,X_INTRODUCED_24,X_INTRODUCED_25,X_INTRODUCED_26,X_INTRODUCED_27,X_INTRODUCED_28,X_INTRODUCED_29,X_INTRODUCED_30,X_INTRODUCED_31,X_INTRODUCED_32,X_INTRODUCED_33,X_INTRODUCED_34,X_INTRODUCED_35,X_INTRODUCED_36,X_INTRODUCED_37,X_INTRODUCED_38,X_INTRODUCED_39,X_INTRODUCED_40,X_INTRODUCED_41,X_INTRODUCED_42,X_INTRODUCED_43,X_INTRODUCED_44,X_INTRODUCED_45,X_INTRODUCED_46,X_INTRODUCED_47,X_INTRODUCED_48,X_INTRODUCED_49,X_INTRODUCED_50,X_INTRODUCED_51,X_INTRODUCED_52,X_INTRODUCED_53,X_INTRODUCED_54,X_INTRODUCED_55,X_INTRODUCED_56,X_INTRODUCED_57,X_INTRODUCED_58,X_INTRODUCED_59,X_INTRODUCED_60,X_INTRODUCED_61,X_INTRODUCED_62,X_INTRODUCED_63,X_INTRODUCED_64,X_INTRODUCED_65,X_INTRODUCED_66,X_INTRODUCED_67,X_INTRODUCED_68,X_INTRODUCED_69,X_INTRODUCED_70,X_INTRODUCED_71,X_INTRODUCED_72,X_INTRODUCED_73,X_INTRODUCED_74,X_INTRODUCED_75,X_INTRODUCED_76,X_INTRODUCED_77,X_INTRODUCED_78,X_INTRODUCED_79];
array [1..75] of var int: X_INTRODUCED_443 ::var_is_introduced  = [X_INTRODUCED_81,X_INTRODUCED_0,X_INTRODUCED_1,X_INTRODUCED_2,X_INTRODUCED_3,X_INTRODUCED_5,X_INTRODUCED_7,X_INTRODUCED_8,X_INTRODUCED_9,X_INTRODUCED_10,X_INTRODUCED_11,X_INTRODUCED_12,X_INTRODUCED_13,X_INTRODUCED_14,X_INTRODUCED_15,X_INTRODUCED_16,X_INTRODUCED_17,X_INTRODUCED_18,X_INTRODUCED_19,X_INTRODUCED_20,X_INTRODUCED_21,X_INTRODUCED_22,X_INTRODUCED_23,X_INTRODUCED_24,X_INTRODUCED_25,X_INTRODUCED_26,X_INTRODUCED_27,X_INTRODUCED_28,X_INTRODUCED_29,X_INTRODUCED_31,X_INTRODUCED_32,X_INTRODUCED_33,X_INTRODUCED_34,X_INTRODUCED_35,X_INTRODUCED_36,X_INTRODUCED_37,X_INTRODUCED_38,X_INTRODUCED_39,X_INTRODUCED_40,X_INTRODUCED_42,X_INTRODUCED_43,X_INTRODUCED_44,X_INTRODUCED_45,X_INTRODUCED_46,X_INTRODUCED_47,X_INTRODUCED_48,X_INTRODUCED_49,X_INTRODUCED_50,X_INTRODUCED_51,X_INTRODUCED_52,X_INTRODUCED_53,X_INTRODUCED_54,X_INTRODUCED_56,X_INTRODUCED_57,X_INTRODUCED_58,X_INTRODUCED_59,X_INTRODUCED_60,X_INTRODUCED_61,X_INTRODUCED_62,X_INTRODUCED_64,X_INTRODUCED_65,X_INTRODUCED_66,X_INTRODUCED_67,X_INTRODUCED_68,X_INTRODUCED_69,X_INTRODUCED_70,X_INTRODUCED_71,X_INTRODUCED_72,X_INTRODUCED_73,X_INTRODUCED_74,X_INTRODUCED_75,X_INTRODUCED_76,X_INTRODUCED_77,X_INTRODUCED_78,X_INTRODUCED_79];
array [1..79] of var int: X_INTRODUCED_530 ::var_is_introduced  = [X_INTRODUCED_82,X_INTRODUCED_0,X_INTRODUCED_1,X_INTRODUCED_2,X_INTRODUCED_3,X_INTRODUCED_4,X_INTRODUCED_5,X_INTRODUCED_7,X_INTRODUCED_8,X_INTRODUCED_9,X_INTRODUCED_10,X_INTRODUCED_11,X_INTRODUCED_12,X_INTRODUCED_13,X_INTRODUCED_14,X_INTRODUCED_15,X_INTRODUCED_16,X_INTRODUCED_17,X_INTRODUCED_18,X_INTRODUCED_19,X_INTRODUCED_20,X_INTRODUCED_21,X_INTRODUCED_22,X_INTRODUCED_23,X_INTRODUCED_24,X_INTRODUCED_25,X_INTRODUCED_26,X_INTRODUCED_27,X_INTRODUCED_28,X_INTRODUCED_29,X_INTRODUCED_30,X_INTRODUCED_31,X_INTRODUCED_32,X_INTRODUCED_33,X_INTRODUCED_34,X_INTRODUCED_35,X_INTRODUCED_36,X_INTRODUCED_37,X_INTRODUCED_38,X_INTRODUCED_39,X_INTRODUCED_40,X_INTRODUCED_41,X_INTRODUCED_42,X_INTRODUCED_43,X_INTRODUCED_44,X_INTRODUCED_45,X_INTRODUCED_46,X_INTRODUCED_47,X_INTRODUCED_48,X_INTRODUCED_49,X_INTRODUCED_50,X_INTRODUCED_51,X_INTRODUCED_52,X_INTRODUCED_53,X_INTRODUCED_55,X_INTRODUCED_56,X_INTRODUCED_57,X_INTRODUCED_58,X_INTRODUCED_59,X_INTRODUCED_60,X_INTRODUCED_61,X_INTRODUCED_62,X_INTRODUCED_63,X_INTRODUCED_64,X_INTRODUCED_65,X_INTRODUCED_66,X_INTRODUCED_67,X_INTRODUCED_68,X_INTRODUCED_69,X_INTRODUCED_70,X_INTRODUCED_71,X_INTRODUCED_72,X_INTRODUCED_73,X_INTRODUCED_74,X_INTRODUCED_75,X_INTRODUCED_76,X_INTRODUCED_77,X_INTRODUCED_78,X_INTRODUCED_79];
array [1..78] of var int: X_INTRODUCED_616 ::var_is_introduced  = [X_INTRODUCED_83,X_INTRODUCED_0,X_INTRODUCED_1,X_INTRODUCED_3,X_INTRODUCED_4,X_INTRODUCED_5,X_INTRODUCED_6,X_INTRODUCED_7,X_INTRODUCED_8,X_INTRODUCED_9,X_INTRODUCED_10,X_INTRODUCED_11,X_INTRODUCED_12,X_INTRODUCED_13,X_INTRODUCED_14,X_INTRODUCED_15,X_INTRODUCED_16,X_INTRODUCED_17,X_INTRODUCED_18,X_INTRODUCED_19,X_INTRODUCED_20,X_INTRODUCED_21,X_INTRODUCED_22,X_INTRODUCED_23,X_INTRODUCED_24,X_INTRODUCED_25,X_INTRODUCED_26,X_INTRODUCED_27,X_INTRODUCED_28,X_INTRODUCED_29,X_INTRODUCED_30,X_INTRODUCED_31,X_INTRODUCED_33,X_INTRODUCED_34,X_INTRODUCED_35,X_INTRODUCED_36,X_INTRODUCED_37,X_INTRODUCED_38,X_INTRODUCED_39,X_INTRODUCED_40,X_INTRODUCED_41,X_INTRODUCED_42,X_INTRODUCED_43,X_INTRODUCED_44,X_INTRODUCED_45,X_INTRODUCED_46,X_INTRODUCED_47,X_INTRODUCED_48,X_INTRODUCED_49,X_INTRODUCED_50,X_INTRODUCED_51,X_INTRODUCED_52,X_INTRODUCED_53,X_INTRODUCED_54,X_INTRODUCED_55,X_INTRODUCED_56,X_INTRODUCED_57,X_INTRODUCED_58,X_INTRODUCED_60,X_INTRODUCED_61,X_INTRODUCED_62,X_INTRODUCED_63,X_INTRODUCED_64,X_INTRODUCED_65,X_INTRODUCED_66,X_INTRODUCED_67,X_INTRODUCED_68,X_INTRODUCED_69,X_INTRODUCED_70,X_INTRODUCED_71,X_INTRODUCED_72,X_INTRODUCED_73,X_INTRODUCED_74,X_INTRODUCED_75,X_INTRODUCED_76,X_INTRODUCED_77,X_INTRODUCED_78,X_INTRODUCED_79];
array [1..80] of var int: X_INTRODUCED_696 ::var_is_introduced  = [X_INTRODUCED_84,X_INTRODUCED_0,X_INTRODUCED_1,X_INTRODUCED_2,X_INTRODUCED_3,X_INTRODUCED_4,X_INTRODUCED_5,X_INTRODUCED_6,X_INTRODUCED_7,X_INTRODUCED_8,X_INTRODUCED_9,X_INTRODUCED_10,X_INTRODUCED_11,X_INTRODUCED_12,X_INTRODUCED_14,X_INTRODUCED_15,X_INTRODUCED_16,X_INTRODUCED_17,X_INTRODUCED_18,X_INTRODUCED_19,X_INTRODUCED_20,X_INTRODUCED_21,X_INTRODUCED_22,X_INTRODUCED_23,X_INTRODUCED_24,X_INTRODUCED_25,X_INTRODUCED_26,X_INTRODUCED_27,X_INTRODUCED_28,X_INTRODUCED_29,X_INTRODUCED_30,X_INTRODUCED_31,X_INTRODUCED_32,X_INTRODUCED_33,X_INTRODUCED_34,X_INTRODUCED_35,X_INTRODUCED_36,X_INTRODUCED_37,X_INTRODUCED_38,X_INTRODUCED_39,X_INTRODUCED_40,X_INTRODUCED_41,X_INTRODUCED_42,X_INTRODUCED_43,X_INTRODUCED_44,X_INTRODUCED_45,X_INTRODUCED_46,X_INTRODUCED_47,X_INTRODUCED_48,X_INTRODUCED_49,X_INTRODUCED_50,X_INTRODUCED_51,X_INTRODUCED_52,X_INTRODUCED_53,X_INTRODUCED_54,X_INTRODUCED_55,X_INTRODUCED_56,X_INTRODUCED_57,X_INTRODUCED_58,X_INTRODUCED_59,X_INTRODUCED_60,X_INTRODUCED_61,X_INTRODUCED_62,X_INTRODUCED_63,X_INTRODUCED_64,X_INTRODUCED_65,X_INTRODUCED_66,X_INTRODUCED_67,X_INTRODUCED_68,X_INTRODUCED_69,X_INTRODUCED_70,X_INTRODUCED_71,X_INTRODUCED_72,X_INTRODUCED_73,X_INTRODUCED_74,X_INTRODUCED_75,X_INTRODUCED_76,X_INTRODUCED_77,X_INTRODUCED_78,X_INTRODUCED_79];
constraint int_lin_eq(X_INTRODUCED_356,X_INTRODUCED_355,0):: defines_var(X_INTRODUCED_80);
constraint int_lin_eq(X_INTRODUCED_359,X_INTRODUCED_358,-8947);
constraint int_lin_eq(X_INTRODUCED_444,X_INTRODUCED_443,0):: defines_var(X_INTRODUCED_81);
constraint int_lin_eq(X_INTRODUCED_531,X_INTRODUCED_530,0):: defines_var(X_INTRODUCED_82);
constraint int_lin_eq(X_INTRODUCED_617,X_INTRODUCED_616,0):: defines_var(X_INTRODUCED_83);
constraint int_lin_eq(X_INTRODUCED_697,X_INTRODUCED_696,0):: defines_var(X_INTRODUCED_84);
constraint int_lin_eq([360,83,59,130,431,67,230,52,93,125,670,892,600,38,48,147,78,256,63,17,120,164,432,35,92,110,22,42,50,323,514,28,87,73,78,15,26,78,210,36,85,189,274,43,33,10,19,389,276,312,94,68,73,192,41,163,16,40,195,138,73,152,400,26,14,170,205,57,369,435,123,25,94,88,90,146,55,29,82,74,-1],[X_INTRODUCED_0,X_INTRODUCED_1,X_INTRODUCED_2,X_INTRODUCED_3,X_INTRODUCED_4,X_INTRODUCED_5,X_INTRODUCED_6,X_INTRODUCED_7,X_INTRODUCED_8,X_INTRODUCED_9,X_INTRODUCED_10,X_INTRODUCED_11,X_INTRODUCED_12,X_INTRODUCED_13,X_INTRODUCED_14,X_INTRODUCED_15,X_INTRODUCED_16,X_INTRODUCED_17,X_INTRODUCED_18,X_INTRODUCED_19,X_INTRODUCED_20,X_INTRODUCED_21,X_INTRODUCED_22,X_INTRODUCED_23,X_INTRODUCED_24,X_INTRODUCED_25,X_INTRODUCED_26,X_INTRODUCED_27,X_INTRODUCED_28,X_INTRODUCED_29,X_INTRODUCED_30,X_INTRODUCED_31,X_INTRODUCED_32,X_INTRODUCED_33,X_INTRODUCED_34,X_INTRODUCED_35,X_INTRODUCED_36,X_INTRODUCED_37,X_INTRODUCED_38,X_INTRODUCED_39,X_INTRODUCED_40,X_INTRODUCED_41,X_INTRODUCED_42,X_INTRODUCED_43,X_INTRODUCED_44,X_INTRODUCED_45,X_INTRODUCED_46,X_INTRODUCED_47,X_INTRODUCED_48,X_INTRODUCED_49,X_INTRODUCED_50,X_INTRODUCED_51,X_INTRODUCED_52,X_INTRODUCED_53,X_INTRODUCED_54,X_INTRODUCED_55,X_INTRODUCED_56,X_INTRODUCED_57,X_INTRODUCED_58,X_INTRODUCED_59,X_INTRODUCED_60,X_INTRODUCED_61,X_INTRODUCED_62,X_INTRODUCED_63,X_INTRODUCED_64,X_INTRODUCED_65,X_INTRODUCED_66,X_INTRODUCED_67,X_INTRODUCED_68,X_INTRODUCED_69,X_INTRODUCED_70,X_INTRODUCED_71,X_INTRODUCED_72,X_INTRODUCED_73,X_INTRODUCED_74,X_INTRODUCED_75,X_INTRODUCED_76,X_INTRODUCED_77,X_INTRODUCED_78,X_INTRODUCED_79,objective],0):: defines_var(objective);
solve :: int_search(x,input_order,indomain_max,complete) maximize objective;
